data/MCDM/NO_CORR/GEN_FROM_60/20_ITEMS_1000_GEN/K5020W11.KNP.mps
NAME          BLANK   
ROWS
 N  OBJROW
 L  R0000000
COLUMNS
    C0000000  OBJROW     -550.         R0000000  66.         
    C0000001  OBJROW     -211.         R0000000  953.        
    C0000002  OBJROW     -415.         R0000000  200.        
    C0000003  OBJROW     -895.         R0000000  942.        
    C0000004  OBJROW     -466.         R0000000  101.        
    C0000005  OBJROW     -375.         R0000000  536.        
    C0000006  OBJROW     -439.         R0000000  830.        
    C0000007  OBJROW     -388.         R0000000  428.        
    C0000008  OBJROW     -62.          R0000000  198.        
    C0000009  OBJROW     -791.         R0000000  119.        
    C0000010  OBJROW     -162.         R0000000  60.         
    C0000011  OBJROW     -865.         R0000000  357.        
    C0000012  OBJROW     -810.         R0000000  469.        
    C0000013  OBJROW     -976.         R0000000  173.        
    C0000014  OBJROW     -2.           R0000000  656.        
    C0000015  OBJROW     -554.         R0000000  994.        
    C0000016  OBJROW     -805.         R0000000  879.        
    C0000017  OBJROW     -334.         R0000000  688.        
    C0000018  OBJROW     -709.         R0000000  49.         
    C0000019  OBJROW     -838.         R0000000  153.        
RHS
    RHS       R0000000  15060.      
BOUNDS
 BV BOUND     C0000000  1.          
 BV BOUND     C0000001  1.          
 BV BOUND     C0000002  1.          
 BV BOUND     C0000003  1.          
 BV BOUND     C0000004  1.          
 BV BOUND     C0000005  1.          
 BV BOUND     C0000006  1.          
 BV BOUND     C0000007  1.          
 BV BOUND     C0000008  1.          
 BV BOUND     C0000009  1.          
 BV BOUND     C0000010  1.          
 BV BOUND     C0000011  1.          
 BV BOUND     C0000012  1.          
 BV BOUND     C0000013  1.          
 BV BOUND     C0000014  1.          
 BV BOUND     C0000015  1.          
 BV BOUND     C0000016  1.          
 BV BOUND     C0000017  1.          
 BV BOUND     C0000018  1.          
 BV BOUND     C0000019  1.          
ENDATA
