data/MCDM/NO_CORR/GEN_FROM_60/20_ITEMS_1000_GEN/K5020W11.KNP.txt
N 20
M 21
LC 20
LC 21
LC 22
LC 23
LC 24
LC 25
LC 26
LC 27
LC 28
LC 29
LC 30
LC 31
LC 32
LC 33
LC 34
LC 35
LC 36
LC 37
LC 38
LC 39
LR 1
LR 2
LR 3
LR 4
LR 5
LR 6
LR 7
LR 8
LR 9
LR 10
LR 11
LR 12
LR 13
LR 14
LR 15
LR 16
LR 17
LR 18
LR 19
LR 20
LR 21
LO -550
LO -211
LO -415
LO -895
LO -466
LO -375
LO -439
LO -388
LO -62
LO -791
LO -162
LO -865
LO -810
LO -976
LO -2
LO -554
LO -805
LO -334
LO -709
LO -838
OS 1
IC 444
IC 207
IC 628
IC 637
IC 869
IC 933
IC 173
IC 141
IC 520
IC 921
IC 850
IC 905
IC 850
IC 163
IC 738
IC 98
IC 576
IC 384
IC 145
IC 377
IB 5280
